\* Probes_Placement_Model *\
Maximize
Peso_total: 14 combinacoes_10_11_0 + 12 combinacoes_10_11_18_0
 + 30 combinacoes_10_11_18_1 + 6 combinacoes_10_11_18_19_0
 + 40 combinacoes_10_11_18_19_1 + 22 combinacoes_10_11_18_19_2
 + 3 combinacoes_10_11_18_19_20_0 + 46 combinacoes_10_11_18_19_20_1
 + 35 combinacoes_10_11_18_19_20_2 + 28 combinacoes_10_11_18_19_20_3
 + 18 combinacoes_10_11_18_19_20_4 + 28 combinacoes_10_11_18_19_20_5
 + 17 combinacoes_10_11_18_19_20_6 + 12 combinacoes_10_11_18_19_20_7
 + 22 combinacoes_10_11_18_19_3 + 3 combinacoes_10_11_18_21_0
 + 37 combinacoes_10_11_18_21_1 + 18 combinacoes_10_11_18_21_2
 + 19 combinacoes_10_11_18_21_3 + 3 combinacoes_10_12_0
 + combinacoes_11_10_12_0 + 17 combinacoes_11_10_12_1 + 16 combinacoes_11_18_0
 + 8 combinacoes_11_18_19_0 + 26 combinacoes_11_18_19_1
 + 4 combinacoes_11_18_19_20_0 + 32 combinacoes_11_18_19_20_1
 + 21 combinacoes_11_18_19_20_2 + 14 combinacoes_11_18_19_20_3
 + 4 combinacoes_11_18_21_0 + 23 combinacoes_11_18_21_1
 + 4 combinacoes_12_10_11_18_0 + 33 combinacoes_12_10_11_18_1
 + 2 combinacoes_12_10_11_18_19_0 + 43 combinacoes_12_10_11_18_19_1
 + 25 combinacoes_12_10_11_18_19_2 + combinacoes_12_10_11_18_19_20_0
 + 49 combinacoes_12_10_11_18_19_20_1 + 22 combinacoes_12_10_11_18_19_20_10
 + 15 combinacoes_12_10_11_18_19_20_11 + 5 combinacoes_12_10_11_18_19_20_12
 + 20 combinacoes_12_10_11_18_19_20_13 + 9 combinacoes_12_10_11_18_19_20_14
 + 8 combinacoes_12_10_11_18_19_20_15 + 38 combinacoes_12_10_11_18_19_20_2
 + 31 combinacoes_12_10_11_18_19_20_3 + 21 combinacoes_12_10_11_18_19_20_4
 + 31 combinacoes_12_10_11_18_19_20_5 + 20 combinacoes_12_10_11_18_19_20_6
 + 15 combinacoes_12_10_11_18_19_20_7 + 6 combinacoes_12_10_11_18_19_20_8
 + 33 combinacoes_12_10_11_18_19_20_9 + 25 combinacoes_12_10_11_18_19_3
 + 9 combinacoes_12_10_11_18_19_4 + 27 combinacoes_12_10_11_18_19_5
 + 9 combinacoes_12_10_11_18_19_6 + 14 combinacoes_12_10_11_18_19_7
 + 15 combinacoes_12_10_11_18_2 + combinacoes_12_10_11_18_21_0
 + 40 combinacoes_12_10_11_18_21_1 + 21 combinacoes_12_10_11_18_21_2
 + 22 combinacoes_12_10_11_18_21_3 + 6 combinacoes_12_10_11_18_21_4
 + 24 combinacoes_12_10_11_18_21_5 + 5 combinacoes_12_10_11_18_21_6
 + 11 combinacoes_12_10_11_18_21_7 + 17 combinacoes_12_10_11_18_3
 + 10 combinacoes_18_19_0 + 5 combinacoes_18_19_20_0
 + 16 combinacoes_18_19_20_1 + 7 combinacoes_18_21_0
 + 2 combinacoes_19_18_21_0 + 17 combinacoes_19_18_21_1
 + 6 combinacoes_19_20_0 + combinacoes_20_19_18_21_0
 + 23 combinacoes_20_19_18_21_1 + 8 combinacoes_20_19_18_21_2
 + 12 combinacoes_20_19_18_21_3 + 7 combinacoes_9_10_0
 + 5 combinacoes_9_10_11_0 + 21 combinacoes_9_10_11_1
 + 4 combinacoes_9_10_11_18_0 + 37 combinacoes_9_10_11_18_1
 + 2 combinacoes_9_10_11_18_19_0 + 47 combinacoes_9_10_11_18_19_1
 + 29 combinacoes_9_10_11_18_19_2 + combinacoes_9_10_11_18_19_20_0
 + 53 combinacoes_9_10_11_18_19_20_1 + 26 combinacoes_9_10_11_18_19_20_10
 + 19 combinacoes_9_10_11_18_19_20_11 + 9 combinacoes_9_10_11_18_19_20_12
 + 20 combinacoes_9_10_11_18_19_20_13 + 9 combinacoes_9_10_11_18_19_20_14
 + 8 combinacoes_9_10_11_18_19_20_15 + 42 combinacoes_9_10_11_18_19_20_2
 + 35 combinacoes_9_10_11_18_19_20_3 + 25 combinacoes_9_10_11_18_19_20_4
 + 35 combinacoes_9_10_11_18_19_20_5 + 24 combinacoes_9_10_11_18_19_20_6
 + 19 combinacoes_9_10_11_18_19_20_7 + 10 combinacoes_9_10_11_18_19_20_8
 + 37 combinacoes_9_10_11_18_19_20_9 + 29 combinacoes_9_10_11_18_19_3
 + 13 combinacoes_9_10_11_18_19_4 + 31 combinacoes_9_10_11_18_19_5
 + 13 combinacoes_9_10_11_18_19_6 + 14 combinacoes_9_10_11_18_19_7
 + 19 combinacoes_9_10_11_18_2 + combinacoes_9_10_11_18_21_0
 + 44 combinacoes_9_10_11_18_21_1 + 25 combinacoes_9_10_11_18_21_2
 + 26 combinacoes_9_10_11_18_21_3 + 10 combinacoes_9_10_11_18_21_4
 + 28 combinacoes_9_10_11_18_21_5 + 9 combinacoes_9_10_11_18_21_6
 + 11 combinacoes_9_10_11_18_21_7 + 21 combinacoes_9_10_11_18_3
 + combinacoes_9_10_12_0 + 10 combinacoes_9_10_12_1
Subject To
Max_Probes_Router10: combinacoes_10_11_0 + combinacoes_10_11_18_0
 + combinacoes_10_11_18_1 + combinacoes_10_11_18_19_0
 + combinacoes_10_11_18_19_1 + combinacoes_10_11_18_19_2
 + combinacoes_10_11_18_19_20_0 + combinacoes_10_11_18_19_20_1
 + combinacoes_10_11_18_19_20_2 + combinacoes_10_11_18_19_20_3
 + combinacoes_10_11_18_19_20_4 + combinacoes_10_11_18_19_20_5
 + combinacoes_10_11_18_19_20_6 + combinacoes_10_11_18_19_20_7
 + combinacoes_10_11_18_19_3 + combinacoes_10_11_18_21_0
 + combinacoes_10_11_18_21_1 + combinacoes_10_11_18_21_2
 + combinacoes_10_11_18_21_3 + combinacoes_10_12_0 + combinacoes_11_10_12_0
 + 2 combinacoes_11_10_12_1 + combinacoes_12_10_11_18_0
 + 2 combinacoes_12_10_11_18_1 + combinacoes_12_10_11_18_19_0
 + 2 combinacoes_12_10_11_18_19_1 + 2 combinacoes_12_10_11_18_19_2
 + combinacoes_12_10_11_18_19_20_0 + 2 combinacoes_12_10_11_18_19_20_1
 + 2 combinacoes_12_10_11_18_19_20_2 + 2 combinacoes_12_10_11_18_19_20_3
 + 2 combinacoes_12_10_11_18_19_20_4 + 2 combinacoes_12_10_11_18_19_20_5
 + 2 combinacoes_12_10_11_18_19_20_6 + 2 combinacoes_12_10_11_18_19_20_7
 + 2 combinacoes_12_10_11_18_19_20_8 + 2 combinacoes_12_10_11_18_19_3
 + 2 combinacoes_12_10_11_18_19_4 + 2 combinacoes_12_10_11_18_2
 + combinacoes_12_10_11_18_21_0 + 2 combinacoes_12_10_11_18_21_1
 + 2 combinacoes_12_10_11_18_21_2 + 2 combinacoes_12_10_11_18_21_3
 + 2 combinacoes_12_10_11_18_21_4 + combinacoes_9_10_0 + combinacoes_9_10_11_0
 + 2 combinacoes_9_10_11_1 + combinacoes_9_10_11_18_0
 + 2 combinacoes_9_10_11_18_1 + combinacoes_9_10_11_18_19_0
 + 2 combinacoes_9_10_11_18_19_1 + 2 combinacoes_9_10_11_18_19_2
 + combinacoes_9_10_11_18_19_20_0 + 2 combinacoes_9_10_11_18_19_20_1
 + 2 combinacoes_9_10_11_18_19_20_2 + 2 combinacoes_9_10_11_18_19_20_3
 + 2 combinacoes_9_10_11_18_19_20_4 + 2 combinacoes_9_10_11_18_19_20_5
 + 2 combinacoes_9_10_11_18_19_20_6 + 2 combinacoes_9_10_11_18_19_20_7
 + 2 combinacoes_9_10_11_18_19_20_8 + 2 combinacoes_9_10_11_18_19_3
 + 2 combinacoes_9_10_11_18_19_4 + 2 combinacoes_9_10_11_18_2
 + combinacoes_9_10_11_18_21_0 + 2 combinacoes_9_10_11_18_21_1
 + 2 combinacoes_9_10_11_18_21_2 + 2 combinacoes_9_10_11_18_21_3
 + 2 combinacoes_9_10_11_18_21_4 + combinacoes_9_10_12_0
 + 2 combinacoes_9_10_12_1 <= 3
Max_Probes_Router11: combinacoes_10_11_0 + combinacoes_10_11_18_0
 + 2 combinacoes_10_11_18_1 + combinacoes_10_11_18_19_0
 + 2 combinacoes_10_11_18_19_1 + 2 combinacoes_10_11_18_19_2
 + combinacoes_10_11_18_19_20_0 + 2 combinacoes_10_11_18_19_20_1
 + 2 combinacoes_10_11_18_19_20_2 + 2 combinacoes_10_11_18_19_20_3
 + 2 combinacoes_10_11_18_19_20_4 + combinacoes_10_11_18_21_0
 + 2 combinacoes_10_11_18_21_1 + 2 combinacoes_10_11_18_21_2
 + combinacoes_11_10_12_0 + combinacoes_11_10_12_1 + combinacoes_11_18_0
 + combinacoes_11_18_19_0 + combinacoes_11_18_19_1 + combinacoes_11_18_19_20_0
 + combinacoes_11_18_19_20_1 + combinacoes_11_18_19_20_2
 + combinacoes_11_18_19_20_3 + combinacoes_11_18_21_0 + combinacoes_11_18_21_1
 + combinacoes_12_10_11_18_0 + 2 combinacoes_12_10_11_18_1
 + combinacoes_12_10_11_18_19_0 + 2 combinacoes_12_10_11_18_19_1
 + 2 combinacoes_12_10_11_18_19_2 + combinacoes_12_10_11_18_19_20_0
 + 2 combinacoes_12_10_11_18_19_20_1 + 2 combinacoes_12_10_11_18_19_20_10
 + 2 combinacoes_12_10_11_18_19_20_11 + 2 combinacoes_12_10_11_18_19_20_12
 + 2 combinacoes_12_10_11_18_19_20_2 + 2 combinacoes_12_10_11_18_19_20_3
 + 2 combinacoes_12_10_11_18_19_20_4 + 2 combinacoes_12_10_11_18_19_20_9
 + 2 combinacoes_12_10_11_18_19_5 + 2 combinacoes_12_10_11_18_19_6
 + combinacoes_12_10_11_18_21_0 + 2 combinacoes_12_10_11_18_21_1
 + 2 combinacoes_12_10_11_18_21_2 + 2 combinacoes_12_10_11_18_21_5
 + 2 combinacoes_12_10_11_18_21_6 + 2 combinacoes_12_10_11_18_3
 + combinacoes_9_10_11_0 + combinacoes_9_10_11_1 + combinacoes_9_10_11_18_0
 + 2 combinacoes_9_10_11_18_1 + combinacoes_9_10_11_18_19_0
 + 2 combinacoes_9_10_11_18_19_1 + 2 combinacoes_9_10_11_18_19_2
 + combinacoes_9_10_11_18_19_20_0 + 2 combinacoes_9_10_11_18_19_20_1
 + 2 combinacoes_9_10_11_18_19_20_10 + 2 combinacoes_9_10_11_18_19_20_11
 + 2 combinacoes_9_10_11_18_19_20_12 + 2 combinacoes_9_10_11_18_19_20_2
 + 2 combinacoes_9_10_11_18_19_20_3 + 2 combinacoes_9_10_11_18_19_20_4
 + 2 combinacoes_9_10_11_18_19_20_9 + 2 combinacoes_9_10_11_18_19_5
 + 2 combinacoes_9_10_11_18_19_6 + combinacoes_9_10_11_18_21_0
 + 2 combinacoes_9_10_11_18_21_1 + 2 combinacoes_9_10_11_18_21_2
 + 2 combinacoes_9_10_11_18_21_5 + 2 combinacoes_9_10_11_18_21_6
 + 2 combinacoes_9_10_11_18_3 <= 2
Max_Probes_Router12: combinacoes_10_12_0 + combinacoes_11_10_12_0
 + combinacoes_11_10_12_1 + combinacoes_12_10_11_18_0
 + combinacoes_12_10_11_18_1 + combinacoes_12_10_11_18_19_0
 + combinacoes_12_10_11_18_19_1 + combinacoes_12_10_11_18_19_2
 + combinacoes_12_10_11_18_19_20_0 + combinacoes_12_10_11_18_19_20_1
 + combinacoes_12_10_11_18_19_20_10 + combinacoes_12_10_11_18_19_20_11
 + combinacoes_12_10_11_18_19_20_12 + combinacoes_12_10_11_18_19_20_13
 + combinacoes_12_10_11_18_19_20_14 + combinacoes_12_10_11_18_19_20_15
 + combinacoes_12_10_11_18_19_20_2 + combinacoes_12_10_11_18_19_20_3
 + combinacoes_12_10_11_18_19_20_4 + combinacoes_12_10_11_18_19_20_5
 + combinacoes_12_10_11_18_19_20_6 + combinacoes_12_10_11_18_19_20_7
 + combinacoes_12_10_11_18_19_20_8 + combinacoes_12_10_11_18_19_20_9
 + combinacoes_12_10_11_18_19_3 + combinacoes_12_10_11_18_19_4
 + combinacoes_12_10_11_18_19_5 + combinacoes_12_10_11_18_19_6
 + combinacoes_12_10_11_18_19_7 + combinacoes_12_10_11_18_2
 + combinacoes_12_10_11_18_21_0 + combinacoes_12_10_11_18_21_1
 + combinacoes_12_10_11_18_21_2 + combinacoes_12_10_11_18_21_3
 + combinacoes_12_10_11_18_21_4 + combinacoes_12_10_11_18_21_5
 + combinacoes_12_10_11_18_21_6 + combinacoes_12_10_11_18_21_7
 + combinacoes_12_10_11_18_3 + combinacoes_9_10_12_0 + combinacoes_9_10_12_1
 <= 1
Max_Probes_Router18: combinacoes_10_11_18_0 + combinacoes_10_11_18_1
 + combinacoes_10_11_18_19_0 + 2 combinacoes_10_11_18_19_1
 + combinacoes_10_11_18_19_20_0 + 2 combinacoes_10_11_18_19_20_1
 + 2 combinacoes_10_11_18_19_20_2 + 2 combinacoes_10_11_18_19_20_5
 + 2 combinacoes_10_11_18_19_20_6 + 2 combinacoes_10_11_18_19_3
 + combinacoes_10_11_18_21_0 + 2 combinacoes_10_11_18_21_1
 + 2 combinacoes_10_11_18_21_3 + combinacoes_11_18_0 + combinacoes_11_18_19_0
 + 2 combinacoes_11_18_19_1 + combinacoes_11_18_19_20_0
 + 2 combinacoes_11_18_19_20_1 + 2 combinacoes_11_18_19_20_2
 + combinacoes_11_18_21_0 + 2 combinacoes_11_18_21_1
 + combinacoes_12_10_11_18_0 + combinacoes_12_10_11_18_1
 + combinacoes_12_10_11_18_19_0 + 2 combinacoes_12_10_11_18_19_1
 + combinacoes_12_10_11_18_19_20_0 + 2 combinacoes_12_10_11_18_19_20_1
 + 2 combinacoes_12_10_11_18_19_20_10 + 2 combinacoes_12_10_11_18_19_20_13
 + 2 combinacoes_12_10_11_18_19_20_14 + 2 combinacoes_12_10_11_18_19_20_2
 + 2 combinacoes_12_10_11_18_19_20_5 + 2 combinacoes_12_10_11_18_19_20_6
 + 2 combinacoes_12_10_11_18_19_20_9 + 2 combinacoes_12_10_11_18_19_3
 + 2 combinacoes_12_10_11_18_19_5 + 2 combinacoes_12_10_11_18_19_7
 + combinacoes_12_10_11_18_2 + combinacoes_12_10_11_18_21_0
 + 2 combinacoes_12_10_11_18_21_1 + 2 combinacoes_12_10_11_18_21_3
 + 2 combinacoes_12_10_11_18_21_5 + 2 combinacoes_12_10_11_18_21_7
 + combinacoes_12_10_11_18_3 + combinacoes_18_19_0 + combinacoes_18_19_20_0
 + combinacoes_18_19_20_1 + combinacoes_18_21_0 + combinacoes_19_18_21_0
 + 2 combinacoes_19_18_21_1 + combinacoes_20_19_18_21_0
 + 2 combinacoes_20_19_18_21_1 + 2 combinacoes_20_19_18_21_3
 + combinacoes_9_10_11_18_0 + combinacoes_9_10_11_18_1
 + combinacoes_9_10_11_18_19_0 + 2 combinacoes_9_10_11_18_19_1
 + combinacoes_9_10_11_18_19_20_0 + 2 combinacoes_9_10_11_18_19_20_1
 + 2 combinacoes_9_10_11_18_19_20_10 + 2 combinacoes_9_10_11_18_19_20_13
 + 2 combinacoes_9_10_11_18_19_20_14 + 2 combinacoes_9_10_11_18_19_20_2
 + 2 combinacoes_9_10_11_18_19_20_5 + 2 combinacoes_9_10_11_18_19_20_6
 + 2 combinacoes_9_10_11_18_19_20_9 + 2 combinacoes_9_10_11_18_19_3
 + 2 combinacoes_9_10_11_18_19_5 + 2 combinacoes_9_10_11_18_19_7
 + combinacoes_9_10_11_18_2 + combinacoes_9_10_11_18_21_0
 + 2 combinacoes_9_10_11_18_21_1 + 2 combinacoes_9_10_11_18_21_3
 + 2 combinacoes_9_10_11_18_21_5 + 2 combinacoes_9_10_11_18_21_7
 + combinacoes_9_10_11_18_3 <= 3
Max_Probes_Router19: combinacoes_10_11_18_19_0 + combinacoes_10_11_18_19_1
 + combinacoes_10_11_18_19_2 + combinacoes_10_11_18_19_20_0
 + 2 combinacoes_10_11_18_19_20_1 + 2 combinacoes_10_11_18_19_20_3
 + 2 combinacoes_10_11_18_19_20_5 + 2 combinacoes_10_11_18_19_20_7
 + combinacoes_10_11_18_19_3 + combinacoes_11_18_19_0 + combinacoes_11_18_19_1
 + combinacoes_11_18_19_20_0 + 2 combinacoes_11_18_19_20_1
 + 2 combinacoes_11_18_19_20_3 + combinacoes_12_10_11_18_19_0
 + combinacoes_12_10_11_18_19_1 + combinacoes_12_10_11_18_19_2
 + combinacoes_12_10_11_18_19_20_0 + 2 combinacoes_12_10_11_18_19_20_1
 + 2 combinacoes_12_10_11_18_19_20_11 + 2 combinacoes_12_10_11_18_19_20_13
 + 2 combinacoes_12_10_11_18_19_20_15 + 2 combinacoes_12_10_11_18_19_20_3
 + 2 combinacoes_12_10_11_18_19_20_5 + 2 combinacoes_12_10_11_18_19_20_7
 + 2 combinacoes_12_10_11_18_19_20_9 + combinacoes_12_10_11_18_19_3
 + combinacoes_12_10_11_18_19_4 + combinacoes_12_10_11_18_19_5
 + combinacoes_12_10_11_18_19_6 + combinacoes_12_10_11_18_19_7
 + combinacoes_18_19_0 + combinacoes_18_19_20_0 + 2 combinacoes_18_19_20_1
 + combinacoes_19_18_21_0 + combinacoes_19_18_21_1 + combinacoes_19_20_0
 + combinacoes_20_19_18_21_0 + 2 combinacoes_20_19_18_21_1
 + 2 combinacoes_20_19_18_21_2 + combinacoes_9_10_11_18_19_0
 + combinacoes_9_10_11_18_19_1 + combinacoes_9_10_11_18_19_2
 + combinacoes_9_10_11_18_19_20_0 + 2 combinacoes_9_10_11_18_19_20_1
 + 2 combinacoes_9_10_11_18_19_20_11 + 2 combinacoes_9_10_11_18_19_20_13
 + 2 combinacoes_9_10_11_18_19_20_15 + 2 combinacoes_9_10_11_18_19_20_3
 + 2 combinacoes_9_10_11_18_19_20_5 + 2 combinacoes_9_10_11_18_19_20_7
 + 2 combinacoes_9_10_11_18_19_20_9 + combinacoes_9_10_11_18_19_3
 + combinacoes_9_10_11_18_19_4 + combinacoes_9_10_11_18_19_5
 + combinacoes_9_10_11_18_19_6 + combinacoes_9_10_11_18_19_7 <= 2
Max_Probes_Router20: combinacoes_10_11_18_19_20_0
 + combinacoes_10_11_18_19_20_1 + combinacoes_10_11_18_19_20_2
 + combinacoes_10_11_18_19_20_3 + combinacoes_10_11_18_19_20_4
 + combinacoes_10_11_18_19_20_5 + combinacoes_10_11_18_19_20_6
 + combinacoes_10_11_18_19_20_7 + combinacoes_11_18_19_20_0
 + combinacoes_11_18_19_20_1 + combinacoes_11_18_19_20_2
 + combinacoes_11_18_19_20_3 + combinacoes_12_10_11_18_19_20_0
 + combinacoes_12_10_11_18_19_20_1 + combinacoes_12_10_11_18_19_20_10
 + combinacoes_12_10_11_18_19_20_11 + combinacoes_12_10_11_18_19_20_12
 + combinacoes_12_10_11_18_19_20_13 + combinacoes_12_10_11_18_19_20_14
 + combinacoes_12_10_11_18_19_20_15 + combinacoes_12_10_11_18_19_20_2
 + combinacoes_12_10_11_18_19_20_3 + combinacoes_12_10_11_18_19_20_4
 + combinacoes_12_10_11_18_19_20_5 + combinacoes_12_10_11_18_19_20_6
 + combinacoes_12_10_11_18_19_20_7 + combinacoes_12_10_11_18_19_20_8
 + combinacoes_12_10_11_18_19_20_9 + combinacoes_18_19_20_0
 + combinacoes_18_19_20_1 + combinacoes_19_20_0 + combinacoes_20_19_18_21_0
 + combinacoes_20_19_18_21_1 + combinacoes_20_19_18_21_2
 + combinacoes_20_19_18_21_3 + combinacoes_9_10_11_18_19_20_0
 + combinacoes_9_10_11_18_19_20_1 + combinacoes_9_10_11_18_19_20_10
 + combinacoes_9_10_11_18_19_20_11 + combinacoes_9_10_11_18_19_20_12
 + combinacoes_9_10_11_18_19_20_13 + combinacoes_9_10_11_18_19_20_14
 + combinacoes_9_10_11_18_19_20_15 + combinacoes_9_10_11_18_19_20_2
 + combinacoes_9_10_11_18_19_20_3 + combinacoes_9_10_11_18_19_20_4
 + combinacoes_9_10_11_18_19_20_5 + combinacoes_9_10_11_18_19_20_6
 + combinacoes_9_10_11_18_19_20_7 + combinacoes_9_10_11_18_19_20_8
 + combinacoes_9_10_11_18_19_20_9 <= 1
Max_Probes_Router21: combinacoes_10_11_18_21_0 + combinacoes_10_11_18_21_1
 + combinacoes_10_11_18_21_2 + combinacoes_10_11_18_21_3
 + combinacoes_11_18_21_0 + combinacoes_11_18_21_1
 + combinacoes_12_10_11_18_21_0 + combinacoes_12_10_11_18_21_1
 + combinacoes_12_10_11_18_21_2 + combinacoes_12_10_11_18_21_3
 + combinacoes_12_10_11_18_21_4 + combinacoes_12_10_11_18_21_5
 + combinacoes_12_10_11_18_21_6 + combinacoes_12_10_11_18_21_7
 + combinacoes_18_21_0 + combinacoes_19_18_21_0 + combinacoes_19_18_21_1
 + combinacoes_20_19_18_21_0 + combinacoes_20_19_18_21_1
 + combinacoes_20_19_18_21_2 + combinacoes_20_19_18_21_3
 + combinacoes_9_10_11_18_21_0 + combinacoes_9_10_11_18_21_1
 + combinacoes_9_10_11_18_21_2 + combinacoes_9_10_11_18_21_3
 + combinacoes_9_10_11_18_21_4 + combinacoes_9_10_11_18_21_5
 + combinacoes_9_10_11_18_21_6 + combinacoes_9_10_11_18_21_7 <= 1
Max_Probes_Router9: combinacoes_9_10_0 + combinacoes_9_10_11_0
 + combinacoes_9_10_11_1 + combinacoes_9_10_11_18_0 + combinacoes_9_10_11_18_1
 + combinacoes_9_10_11_18_19_0 + combinacoes_9_10_11_18_19_1
 + combinacoes_9_10_11_18_19_2 + combinacoes_9_10_11_18_19_20_0
 + combinacoes_9_10_11_18_19_20_1 + combinacoes_9_10_11_18_19_20_10
 + combinacoes_9_10_11_18_19_20_11 + combinacoes_9_10_11_18_19_20_12
 + combinacoes_9_10_11_18_19_20_13 + combinacoes_9_10_11_18_19_20_14
 + combinacoes_9_10_11_18_19_20_15 + combinacoes_9_10_11_18_19_20_2
 + combinacoes_9_10_11_18_19_20_3 + combinacoes_9_10_11_18_19_20_4
 + combinacoes_9_10_11_18_19_20_5 + combinacoes_9_10_11_18_19_20_6
 + combinacoes_9_10_11_18_19_20_7 + combinacoes_9_10_11_18_19_20_8
 + combinacoes_9_10_11_18_19_20_9 + combinacoes_9_10_11_18_19_3
 + combinacoes_9_10_11_18_19_4 + combinacoes_9_10_11_18_19_5
 + combinacoes_9_10_11_18_19_6 + combinacoes_9_10_11_18_19_7
 + combinacoes_9_10_11_18_2 + combinacoes_9_10_11_18_21_0
 + combinacoes_9_10_11_18_21_1 + combinacoes_9_10_11_18_21_2
 + combinacoes_9_10_11_18_21_3 + combinacoes_9_10_11_18_21_4
 + combinacoes_9_10_11_18_21_5 + combinacoes_9_10_11_18_21_6
 + combinacoes_9_10_11_18_21_7 + combinacoes_9_10_11_18_3
 + combinacoes_9_10_12_0 + combinacoes_9_10_12_1 <= 1
Rep__'10',_'11',_'18',_'19'_,__'19',_'20'__: combinacoes_10_11_18_19_0
 - combinacoes_10_11_18_19_20_7 + combinacoes_19_20_0 = 0
Rep__'10',_'11',_'18'_,__'18',_'19',_'20'__: combinacoes_10_11_18_0
 - combinacoes_10_11_18_19_20_6 + combinacoes_18_19_20_0 = 0
Rep__'10',_'11',_'18'_,__'18',_'19'_,__'19',_'20'__: combinacoes_10_11_18_0
 - combinacoes_10_11_18_19_20_5 + combinacoes_18_19_0 + combinacoes_19_20_0
 = 0
Rep__'10',_'11',_'18'_,__'18',_'19'__: combinacoes_10_11_18_0
 - combinacoes_10_11_18_19_3 + combinacoes_18_19_0 = 0
Rep__'10',_'11',_'18'_,__'18',_'21'__: combinacoes_10_11_18_0
 - combinacoes_10_11_18_21_3 + combinacoes_18_21_0 = 0
Rep__'10',_'11'_,__'11',_'18',_'19',_'20'__: combinacoes_10_11_0
 - combinacoes_10_11_18_19_20_4 + combinacoes_11_18_19_20_0 = 0
Rep__'10',_'11'_,__'11',_'18',_'19'_,__'19',_'20'__: combinacoes_10_11_0
 - combinacoes_10_11_18_19_20_3 + combinacoes_11_18_19_0 + combinacoes_19_20_0
 = 0
Rep__'10',_'11'_,__'11',_'18',_'19'__: combinacoes_10_11_0
 - combinacoes_10_11_18_19_2 + combinacoes_11_18_19_0 = 0
Rep__'10',_'11'_,__'11',_'18',_'21'__: combinacoes_10_11_0
 - combinacoes_10_11_18_21_2 + combinacoes_11_18_21_0 = 0
Rep__'10',_'11'_,__'11',_'18'_,__'18',_'19',_'20'__: combinacoes_10_11_0
 - combinacoes_10_11_18_19_20_2 + combinacoes_11_18_0 + combinacoes_18_19_20_0
 = 0
Rep__'10',_'11'_,__'11',_'18'_,__'18',_'19'_,__'19',_'20'__:
 combinacoes_10_11_0 - combinacoes_10_11_18_19_20_1 + combinacoes_11_18_0
 + combinacoes_18_19_0 + combinacoes_19_20_0 = 0
Rep__'10',_'11'_,__'11',_'18'_,__'18',_'19'__: combinacoes_10_11_0
 - combinacoes_10_11_18_19_1 + combinacoes_11_18_0 + combinacoes_18_19_0 = 0
Rep__'10',_'11'_,__'11',_'18'_,__'18',_'21'__: combinacoes_10_11_0
 - combinacoes_10_11_18_21_1 + combinacoes_11_18_0 + combinacoes_18_21_0 = 0
Rep__'10',_'11'_,__'11',_'18'__: combinacoes_10_11_0 - combinacoes_10_11_18_1
 + combinacoes_11_18_0 = 0
Rep__'11',_'10'_,__'10',_'12'__: combinacoes_10_11_0 + combinacoes_10_12_0
 - combinacoes_11_10_12_1 = 0
Rep__'11',_'18',_'19'_,__'19',_'20'__: combinacoes_11_18_19_0
 - combinacoes_11_18_19_20_3 + combinacoes_19_20_0 = 0
Rep__'11',_'18'_,__'18',_'19',_'20'__: combinacoes_11_18_0
 - combinacoes_11_18_19_20_2 + combinacoes_18_19_20_0 = 0
Rep__'11',_'18'_,__'18',_'19'_,__'19',_'20'__: combinacoes_11_18_0
 - combinacoes_11_18_19_20_1 + combinacoes_18_19_0 + combinacoes_19_20_0 = 0
Rep__'11',_'18'_,__'18',_'19'__: combinacoes_11_18_0 - combinacoes_11_18_19_1
 + combinacoes_18_19_0 = 0
Rep__'11',_'18'_,__'18',_'21'__: combinacoes_11_18_0 - combinacoes_11_18_21_1
 + combinacoes_18_21_0 = 0
Rep__'12',_'10',_'11',_'18',_'19'_,__'19',_'20'__:
 combinacoes_12_10_11_18_19_0 - combinacoes_12_10_11_18_19_20_15
 + combinacoes_19_20_0 = 0
Rep__'12',_'10',_'11',_'18'_,__'18',_'19',_'20'__: combinacoes_12_10_11_18_0
 - combinacoes_12_10_11_18_19_20_14 + combinacoes_18_19_20_0 = 0
Rep__'12',_'10',_'11',_'18'_,__'18',_'19'_,__'19',_'20'__:
 combinacoes_12_10_11_18_0 - combinacoes_12_10_11_18_19_20_13
 + combinacoes_18_19_0 + combinacoes_19_20_0 = 0
Rep__'12',_'10',_'11',_'18'_,__'18',_'19'__: combinacoes_12_10_11_18_0
 - combinacoes_12_10_11_18_19_7 + combinacoes_18_19_0 = 0
Rep__'12',_'10',_'11',_'18'_,__'18',_'21'__: combinacoes_12_10_11_18_0
 - combinacoes_12_10_11_18_21_7 + combinacoes_18_21_0 = 0
Rep__'12',_'10',_'11'_,__'11',_'18',_'19',_'20'__: combinacoes_11_10_12_0
 + combinacoes_11_18_19_20_0 - combinacoes_12_10_11_18_19_20_12 = 0
Rep__'12',_'10',_'11'_,__'11',_'18',_'19'_,__'19',_'20'__:
 combinacoes_11_10_12_0 + combinacoes_11_18_19_0
 - combinacoes_12_10_11_18_19_20_11 + combinacoes_19_20_0 = 0
Rep__'12',_'10',_'11'_,__'11',_'18',_'19'__: combinacoes_11_10_12_0
 + combinacoes_11_18_19_0 - combinacoes_12_10_11_18_19_6 = 0
Rep__'12',_'10',_'11'_,__'11',_'18',_'21'__: combinacoes_11_10_12_0
 + combinacoes_11_18_21_0 - combinacoes_12_10_11_18_21_6 = 0
Rep__'12',_'10',_'11'_,__'11',_'18'_,__'18',_'19',_'20'__:
 combinacoes_11_10_12_0 + combinacoes_11_18_0
 - combinacoes_12_10_11_18_19_20_10 + combinacoes_18_19_20_0 = 0
Rep__'12',_'10',_'11'_,__'11',_'18'_,__'18',_'19'_,__'19',_'20'__:
 combinacoes_11_10_12_0 + combinacoes_11_18_0
 - combinacoes_12_10_11_18_19_20_9 + combinacoes_18_19_0 + combinacoes_19_20_0
 = 0
Rep__'12',_'10',_'11'_,__'11',_'18'_,__'18',_'19'__: combinacoes_11_10_12_0
 + combinacoes_11_18_0 - combinacoes_12_10_11_18_19_5 + combinacoes_18_19_0
 = 0
Rep__'12',_'10',_'11'_,__'11',_'18'_,__'18',_'21'__: combinacoes_11_10_12_0
 + combinacoes_11_18_0 - combinacoes_12_10_11_18_21_5 + combinacoes_18_21_0
 = 0
Rep__'12',_'10',_'11'_,__'11',_'18'__: combinacoes_11_10_12_0
 + combinacoes_11_18_0 - combinacoes_12_10_11_18_3 = 0
Rep__'12',_'10'_,__'10',_'11',_'18',_'19',_'20'__:
 combinacoes_10_11_18_19_20_0 + combinacoes_10_12_0
 - combinacoes_12_10_11_18_19_20_8 = 0
Rep__'12',_'10'_,__'10',_'11',_'18',_'19'_,__'19',_'20'__:
 combinacoes_10_11_18_19_0 + combinacoes_10_12_0
 - combinacoes_12_10_11_18_19_20_7 + combinacoes_19_20_0 = 0
Rep__'12',_'10'_,__'10',_'11',_'18',_'19'__: combinacoes_10_11_18_19_0
 + combinacoes_10_12_0 - combinacoes_12_10_11_18_19_4 = 0
Rep__'12',_'10'_,__'10',_'11',_'18',_'21'__: combinacoes_10_11_18_21_0
 + combinacoes_10_12_0 - combinacoes_12_10_11_18_21_4 = 0
Rep__'12',_'10'_,__'10',_'11',_'18'_,__'18',_'19',_'20'__:
 combinacoes_10_11_18_0 + combinacoes_10_12_0
 - combinacoes_12_10_11_18_19_20_6 + combinacoes_18_19_20_0 = 0
Rep__'12',_'10'_,__'10',_'11',_'18'_,__'18',_'19'_,__'19',_'20'__:
 combinacoes_10_11_18_0 + combinacoes_10_12_0
 - combinacoes_12_10_11_18_19_20_5 + combinacoes_18_19_0 + combinacoes_19_20_0
 = 0
Rep__'12',_'10'_,__'10',_'11',_'18'_,__'18',_'19'__: combinacoes_10_11_18_0
 + combinacoes_10_12_0 - combinacoes_12_10_11_18_19_3 + combinacoes_18_19_0
 = 0
Rep__'12',_'10'_,__'10',_'11',_'18'_,__'18',_'21'__: combinacoes_10_11_18_0
 + combinacoes_10_12_0 - combinacoes_12_10_11_18_21_3 + combinacoes_18_21_0
 = 0
Rep__'12',_'10'_,__'10',_'11',_'18'__: combinacoes_10_11_18_0
 + combinacoes_10_12_0 - combinacoes_12_10_11_18_2 = 0
Rep__'12',_'10'_,__'10',_'11'_,__'11',_'18',_'19',_'20'__: combinacoes_10_11_0
 + combinacoes_10_12_0 + combinacoes_11_18_19_20_0
 - combinacoes_12_10_11_18_19_20_4 = 0
Rep__'12',_'10'_,__'10',_'11'_,__'11',_'18',_'19'_,__'19',_'20'__:
 combinacoes_10_11_0 + combinacoes_10_12_0 + combinacoes_11_18_19_0
 - combinacoes_12_10_11_18_19_20_3 + combinacoes_19_20_0 = 0
Rep__'12',_'10'_,__'10',_'11'_,__'11',_'18',_'19'__: combinacoes_10_11_0
 + combinacoes_10_12_0 + combinacoes_11_18_19_0 - combinacoes_12_10_11_18_19_2
 = 0
Rep__'12',_'10'_,__'10',_'11'_,__'11',_'18',_'21'__: combinacoes_10_11_0
 + combinacoes_10_12_0 + combinacoes_11_18_21_0 - combinacoes_12_10_11_18_21_2
 = 0
Rep__'12',_'10'_,__'10',_'11'_,__'11',_'18'_,__'18',_'19',_'20'__:
 combinacoes_10_11_0 + combinacoes_10_12_0 + combinacoes_11_18_0
 - combinacoes_12_10_11_18_19_20_2 + combinacoes_18_19_20_0 = 0
Rep__'12',_'10'_,__'10',_'11'_,__'11',_'18'_,__'18',_'19'_,__'19',_'20'__:
 combinacoes_10_11_0 + combinacoes_10_12_0 + combinacoes_11_18_0
 - combinacoes_12_10_11_18_19_20_1 + combinacoes_18_19_0 + combinacoes_19_20_0
 = 0
Rep__'12',_'10'_,__'10',_'11'_,__'11',_'18'_,__'18',_'19'__:
 combinacoes_10_11_0 + combinacoes_10_12_0 + combinacoes_11_18_0
 - combinacoes_12_10_11_18_19_1 + combinacoes_18_19_0 = 0
Rep__'12',_'10'_,__'10',_'11'_,__'11',_'18'_,__'18',_'21'__:
 combinacoes_10_11_0 + combinacoes_10_12_0 + combinacoes_11_18_0
 - combinacoes_12_10_11_18_21_1 + combinacoes_18_21_0 = 0
Rep__'12',_'10'_,__'10',_'11'_,__'11',_'18'__: combinacoes_10_11_0
 + combinacoes_10_12_0 + combinacoes_11_18_0 - combinacoes_12_10_11_18_1 = 0
Rep__'18',_'19'_,__'19',_'20'__: combinacoes_18_19_0 - combinacoes_18_19_20_1
 + combinacoes_19_20_0 = 0
Rep__'19',_'18'_,__'18',_'21'__: combinacoes_18_19_0 + combinacoes_18_21_0
 - combinacoes_19_18_21_1 = 0
Rep__'20',_'19',_'18'_,__'18',_'21'__: combinacoes_18_19_20_0
 + combinacoes_18_21_0 - combinacoes_20_19_18_21_3 = 0
Rep__'20',_'19'_,__'19',_'18',_'21'__: combinacoes_19_18_21_0
 + combinacoes_19_20_0 - combinacoes_20_19_18_21_2 = 0
Rep__'20',_'19'_,__'19',_'18'_,__'18',_'21'__: combinacoes_18_19_0
 + combinacoes_18_21_0 + combinacoes_19_20_0 - combinacoes_20_19_18_21_1 = 0
Rep__'9',_'10',_'11',_'18',_'19'_,__'19',_'20'__: combinacoes_19_20_0
 + combinacoes_9_10_11_18_19_0 - combinacoes_9_10_11_18_19_20_15 = 0
Rep__'9',_'10',_'11',_'18'_,__'18',_'19',_'20'__: combinacoes_18_19_20_0
 + combinacoes_9_10_11_18_0 - combinacoes_9_10_11_18_19_20_14 = 0
Rep__'9',_'10',_'11',_'18'_,__'18',_'19'_,__'19',_'20'__: combinacoes_18_19_0
 + combinacoes_19_20_0 + combinacoes_9_10_11_18_0
 - combinacoes_9_10_11_18_19_20_13 = 0
Rep__'9',_'10',_'11',_'18'_,__'18',_'19'__: combinacoes_18_19_0
 + combinacoes_9_10_11_18_0 - combinacoes_9_10_11_18_19_7 = 0
Rep__'9',_'10',_'11',_'18'_,__'18',_'21'__: combinacoes_18_21_0
 + combinacoes_9_10_11_18_0 - combinacoes_9_10_11_18_21_7 = 0
Rep__'9',_'10',_'11'_,__'11',_'18',_'19',_'20'__: combinacoes_11_18_19_20_0
 + combinacoes_9_10_11_0 - combinacoes_9_10_11_18_19_20_12 = 0
Rep__'9',_'10',_'11'_,__'11',_'18',_'19'_,__'19',_'20'__:
 combinacoes_11_18_19_0 + combinacoes_19_20_0 + combinacoes_9_10_11_0
 - combinacoes_9_10_11_18_19_20_11 = 0
Rep__'9',_'10',_'11'_,__'11',_'18',_'19'__: combinacoes_11_18_19_0
 + combinacoes_9_10_11_0 - combinacoes_9_10_11_18_19_6 = 0
Rep__'9',_'10',_'11'_,__'11',_'18',_'21'__: combinacoes_11_18_21_0
 + combinacoes_9_10_11_0 - combinacoes_9_10_11_18_21_6 = 0
Rep__'9',_'10',_'11'_,__'11',_'18'_,__'18',_'19',_'20'__: combinacoes_11_18_0
 + combinacoes_18_19_20_0 + combinacoes_9_10_11_0
 - combinacoes_9_10_11_18_19_20_10 = 0
Rep__'9',_'10',_'11'_,__'11',_'18'_,__'18',_'19'_,__'19',_'20'__:
 combinacoes_11_18_0 + combinacoes_18_19_0 + combinacoes_19_20_0
 + combinacoes_9_10_11_0 - combinacoes_9_10_11_18_19_20_9 = 0
Rep__'9',_'10',_'11'_,__'11',_'18'_,__'18',_'19'__: combinacoes_11_18_0
 + combinacoes_18_19_0 + combinacoes_9_10_11_0 - combinacoes_9_10_11_18_19_5
 = 0
Rep__'9',_'10',_'11'_,__'11',_'18'_,__'18',_'21'__: combinacoes_11_18_0
 + combinacoes_18_21_0 + combinacoes_9_10_11_0 - combinacoes_9_10_11_18_21_5
 = 0
Rep__'9',_'10',_'11'_,__'11',_'18'__: combinacoes_11_18_0
 + combinacoes_9_10_11_0 - combinacoes_9_10_11_18_3 = 0
Rep__'9',_'10'_,__'10',_'11',_'18',_'19',_'20'__: combinacoes_10_11_18_19_20_0
 + combinacoes_9_10_0 - combinacoes_9_10_11_18_19_20_8 = 0
Rep__'9',_'10'_,__'10',_'11',_'18',_'19'_,__'19',_'20'__:
 combinacoes_10_11_18_19_0 + combinacoes_19_20_0 + combinacoes_9_10_0
 - combinacoes_9_10_11_18_19_20_7 = 0
Rep__'9',_'10'_,__'10',_'11',_'18',_'19'__: combinacoes_10_11_18_19_0
 + combinacoes_9_10_0 - combinacoes_9_10_11_18_19_4 = 0
Rep__'9',_'10'_,__'10',_'11',_'18',_'21'__: combinacoes_10_11_18_21_0
 + combinacoes_9_10_0 - combinacoes_9_10_11_18_21_4 = 0
Rep__'9',_'10'_,__'10',_'11',_'18'_,__'18',_'19',_'20'__:
 combinacoes_10_11_18_0 + combinacoes_18_19_20_0 + combinacoes_9_10_0
 - combinacoes_9_10_11_18_19_20_6 = 0
Rep__'9',_'10'_,__'10',_'11',_'18'_,__'18',_'19'_,__'19',_'20'__:
 combinacoes_10_11_18_0 + combinacoes_18_19_0 + combinacoes_19_20_0
 + combinacoes_9_10_0 - combinacoes_9_10_11_18_19_20_5 = 0
Rep__'9',_'10'_,__'10',_'11',_'18'_,__'18',_'19'__: combinacoes_10_11_18_0
 + combinacoes_18_19_0 + combinacoes_9_10_0 - combinacoes_9_10_11_18_19_3 = 0
Rep__'9',_'10'_,__'10',_'11',_'18'_,__'18',_'21'__: combinacoes_10_11_18_0
 + combinacoes_18_21_0 + combinacoes_9_10_0 - combinacoes_9_10_11_18_21_3 = 0
Rep__'9',_'10'_,__'10',_'11',_'18'__: combinacoes_10_11_18_0
 + combinacoes_9_10_0 - combinacoes_9_10_11_18_2 = 0
Rep__'9',_'10'_,__'10',_'11'_,__'11',_'18',_'19',_'20'__: combinacoes_10_11_0
 + combinacoes_11_18_19_20_0 + combinacoes_9_10_0
 - combinacoes_9_10_11_18_19_20_4 = 0
Rep__'9',_'10'_,__'10',_'11'_,__'11',_'18',_'19'_,__'19',_'20'__:
 combinacoes_10_11_0 + combinacoes_11_18_19_0 + combinacoes_19_20_0
 + combinacoes_9_10_0 - combinacoes_9_10_11_18_19_20_3 = 0
Rep__'9',_'10'_,__'10',_'11'_,__'11',_'18',_'19'__: combinacoes_10_11_0
 + combinacoes_11_18_19_0 + combinacoes_9_10_0 - combinacoes_9_10_11_18_19_2
 = 0
Rep__'9',_'10'_,__'10',_'11'_,__'11',_'18',_'21'__: combinacoes_10_11_0
 + combinacoes_11_18_21_0 + combinacoes_9_10_0 - combinacoes_9_10_11_18_21_2
 = 0
Rep__'9',_'10'_,__'10',_'11'_,__'11',_'18'_,__'18',_'19',_'20'__:
 combinacoes_10_11_0 + combinacoes_11_18_0 + combinacoes_18_19_20_0
 + combinacoes_9_10_0 - combinacoes_9_10_11_18_19_20_2 = 0
Rep__'9',_'10'_,__'10',_'11'_,__'11',_'18'_,__'18',_'19'_,__'19',_'20'__:
 combinacoes_10_11_0 + combinacoes_11_18_0 + combinacoes_18_19_0
 + combinacoes_19_20_0 + combinacoes_9_10_0 - combinacoes_9_10_11_18_19_20_1
 = 0
Rep__'9',_'10'_,__'10',_'11'_,__'11',_'18'_,__'18',_'19'__:
 combinacoes_10_11_0 + combinacoes_11_18_0 + combinacoes_18_19_0
 + combinacoes_9_10_0 - combinacoes_9_10_11_18_19_1 = 0
Rep__'9',_'10'_,__'10',_'11'_,__'11',_'18'_,__'18',_'21'__:
 combinacoes_10_11_0 + combinacoes_11_18_0 + combinacoes_18_21_0
 + combinacoes_9_10_0 - combinacoes_9_10_11_18_21_1 = 0
Rep__'9',_'10'_,__'10',_'11'_,__'11',_'18'__: combinacoes_10_11_0
 + combinacoes_11_18_0 + combinacoes_9_10_0 - combinacoes_9_10_11_18_1 = 0
Rep__'9',_'10'_,__'10',_'11'__: combinacoes_10_11_0 + combinacoes_9_10_0
 - combinacoes_9_10_11_1 = 0
Rep__'9',_'10'_,__'10',_'12'__: combinacoes_10_12_0 + combinacoes_9_10_0
 - combinacoes_9_10_12_1 = 0
Bounds
 0 <= combinacoes_10_11_0 <= 16
 0 <= combinacoes_10_11_18_0 <= 16
 0 <= combinacoes_10_11_18_1 <= 16
 0 <= combinacoes_10_11_18_19_0 <= 16
 0 <= combinacoes_10_11_18_19_1 <= 16
 0 <= combinacoes_10_11_18_19_2 <= 16
 0 <= combinacoes_10_11_18_19_20_0 <= 16
 0 <= combinacoes_10_11_18_19_20_1 <= 16
 0 <= combinacoes_10_11_18_19_20_2 <= 16
 0 <= combinacoes_10_11_18_19_20_3 <= 16
 0 <= combinacoes_10_11_18_19_20_4 <= 16
 0 <= combinacoes_10_11_18_19_20_5 <= 16
 0 <= combinacoes_10_11_18_19_20_6 <= 16
 0 <= combinacoes_10_11_18_19_20_7 <= 16
 0 <= combinacoes_10_11_18_19_3 <= 16
 0 <= combinacoes_10_11_18_21_0 <= 16
 0 <= combinacoes_10_11_18_21_1 <= 16
 0 <= combinacoes_10_11_18_21_2 <= 16
 0 <= combinacoes_10_11_18_21_3 <= 16
 0 <= combinacoes_10_12_0 <= 16
 0 <= combinacoes_11_10_12_0 <= 16
 0 <= combinacoes_11_10_12_1 <= 16
 0 <= combinacoes_11_18_0 <= 16
 0 <= combinacoes_11_18_19_0 <= 16
 0 <= combinacoes_11_18_19_1 <= 16
 0 <= combinacoes_11_18_19_20_0 <= 16
 0 <= combinacoes_11_18_19_20_1 <= 16
 0 <= combinacoes_11_18_19_20_2 <= 16
 0 <= combinacoes_11_18_19_20_3 <= 16
 0 <= combinacoes_11_18_21_0 <= 16
 0 <= combinacoes_11_18_21_1 <= 16
 0 <= combinacoes_12_10_11_18_0 <= 16
 0 <= combinacoes_12_10_11_18_1 <= 16
 0 <= combinacoes_12_10_11_18_19_0 <= 16
 0 <= combinacoes_12_10_11_18_19_1 <= 16
 0 <= combinacoes_12_10_11_18_19_2 <= 16
 0 <= combinacoes_12_10_11_18_19_20_0 <= 16
 0 <= combinacoes_12_10_11_18_19_20_1 <= 16
 0 <= combinacoes_12_10_11_18_19_20_10 <= 16
 0 <= combinacoes_12_10_11_18_19_20_11 <= 16
 0 <= combinacoes_12_10_11_18_19_20_12 <= 16
 0 <= combinacoes_12_10_11_18_19_20_13 <= 16
 0 <= combinacoes_12_10_11_18_19_20_14 <= 16
 0 <= combinacoes_12_10_11_18_19_20_15 <= 16
 0 <= combinacoes_12_10_11_18_19_20_2 <= 16
 0 <= combinacoes_12_10_11_18_19_20_3 <= 16
 0 <= combinacoes_12_10_11_18_19_20_4 <= 16
 0 <= combinacoes_12_10_11_18_19_20_5 <= 16
 0 <= combinacoes_12_10_11_18_19_20_6 <= 16
 0 <= combinacoes_12_10_11_18_19_20_7 <= 16
 0 <= combinacoes_12_10_11_18_19_20_8 <= 16
 0 <= combinacoes_12_10_11_18_19_20_9 <= 16
 0 <= combinacoes_12_10_11_18_19_3 <= 16
 0 <= combinacoes_12_10_11_18_19_4 <= 16
 0 <= combinacoes_12_10_11_18_19_5 <= 16
 0 <= combinacoes_12_10_11_18_19_6 <= 16
 0 <= combinacoes_12_10_11_18_19_7 <= 16
 0 <= combinacoes_12_10_11_18_2 <= 16
 0 <= combinacoes_12_10_11_18_21_0 <= 16
 0 <= combinacoes_12_10_11_18_21_1 <= 16
 0 <= combinacoes_12_10_11_18_21_2 <= 16
 0 <= combinacoes_12_10_11_18_21_3 <= 16
 0 <= combinacoes_12_10_11_18_21_4 <= 16
 0 <= combinacoes_12_10_11_18_21_5 <= 16
 0 <= combinacoes_12_10_11_18_21_6 <= 16
 0 <= combinacoes_12_10_11_18_21_7 <= 16
 0 <= combinacoes_12_10_11_18_3 <= 16
 0 <= combinacoes_18_19_0 <= 16
 0 <= combinacoes_18_19_20_0 <= 16
 0 <= combinacoes_18_19_20_1 <= 16
 0 <= combinacoes_18_21_0 <= 16
 0 <= combinacoes_19_18_21_0 <= 16
 0 <= combinacoes_19_18_21_1 <= 16
 0 <= combinacoes_19_20_0 <= 16
 0 <= combinacoes_20_19_18_21_0 <= 16
 0 <= combinacoes_20_19_18_21_1 <= 16
 0 <= combinacoes_20_19_18_21_2 <= 16
 0 <= combinacoes_20_19_18_21_3 <= 16
 0 <= combinacoes_9_10_0 <= 16
 0 <= combinacoes_9_10_11_0 <= 16
 0 <= combinacoes_9_10_11_1 <= 16
 0 <= combinacoes_9_10_11_18_0 <= 16
 0 <= combinacoes_9_10_11_18_1 <= 16
 0 <= combinacoes_9_10_11_18_19_0 <= 16
 0 <= combinacoes_9_10_11_18_19_1 <= 16
 0 <= combinacoes_9_10_11_18_19_2 <= 16
 0 <= combinacoes_9_10_11_18_19_20_0 <= 16
 0 <= combinacoes_9_10_11_18_19_20_1 <= 16
 0 <= combinacoes_9_10_11_18_19_20_10 <= 16
 0 <= combinacoes_9_10_11_18_19_20_11 <= 16
 0 <= combinacoes_9_10_11_18_19_20_12 <= 16
 0 <= combinacoes_9_10_11_18_19_20_13 <= 16
 0 <= combinacoes_9_10_11_18_19_20_14 <= 16
 0 <= combinacoes_9_10_11_18_19_20_15 <= 16
 0 <= combinacoes_9_10_11_18_19_20_2 <= 16
 0 <= combinacoes_9_10_11_18_19_20_3 <= 16
 0 <= combinacoes_9_10_11_18_19_20_4 <= 16
 0 <= combinacoes_9_10_11_18_19_20_5 <= 16
 0 <= combinacoes_9_10_11_18_19_20_6 <= 16
 0 <= combinacoes_9_10_11_18_19_20_7 <= 16
 0 <= combinacoes_9_10_11_18_19_20_8 <= 16
 0 <= combinacoes_9_10_11_18_19_20_9 <= 16
 0 <= combinacoes_9_10_11_18_19_3 <= 16
 0 <= combinacoes_9_10_11_18_19_4 <= 16
 0 <= combinacoes_9_10_11_18_19_5 <= 16
 0 <= combinacoes_9_10_11_18_19_6 <= 16
 0 <= combinacoes_9_10_11_18_19_7 <= 16
 0 <= combinacoes_9_10_11_18_2 <= 16
 0 <= combinacoes_9_10_11_18_21_0 <= 16
 0 <= combinacoes_9_10_11_18_21_1 <= 16
 0 <= combinacoes_9_10_11_18_21_2 <= 16
 0 <= combinacoes_9_10_11_18_21_3 <= 16
 0 <= combinacoes_9_10_11_18_21_4 <= 16
 0 <= combinacoes_9_10_11_18_21_5 <= 16
 0 <= combinacoes_9_10_11_18_21_6 <= 16
 0 <= combinacoes_9_10_11_18_21_7 <= 16
 0 <= combinacoes_9_10_11_18_3 <= 16
 0 <= combinacoes_9_10_12_0 <= 16
 0 <= combinacoes_9_10_12_1 <= 16
Generals
combinacoes_10_11_0
combinacoes_10_11_18_0
combinacoes_10_11_18_1
combinacoes_10_11_18_19_0
combinacoes_10_11_18_19_1
combinacoes_10_11_18_19_2
combinacoes_10_11_18_19_20_0
combinacoes_10_11_18_19_20_1
combinacoes_10_11_18_19_20_2
combinacoes_10_11_18_19_20_3
combinacoes_10_11_18_19_20_4
combinacoes_10_11_18_19_20_5
combinacoes_10_11_18_19_20_6
combinacoes_10_11_18_19_20_7
combinacoes_10_11_18_19_3
combinacoes_10_11_18_21_0
combinacoes_10_11_18_21_1
combinacoes_10_11_18_21_2
combinacoes_10_11_18_21_3
combinacoes_10_12_0
combinacoes_11_10_12_0
combinacoes_11_10_12_1
combinacoes_11_18_0
combinacoes_11_18_19_0
combinacoes_11_18_19_1
combinacoes_11_18_19_20_0
combinacoes_11_18_19_20_1
combinacoes_11_18_19_20_2
combinacoes_11_18_19_20_3
combinacoes_11_18_21_0
combinacoes_11_18_21_1
combinacoes_12_10_11_18_0
combinacoes_12_10_11_18_1
combinacoes_12_10_11_18_19_0
combinacoes_12_10_11_18_19_1
combinacoes_12_10_11_18_19_2
combinacoes_12_10_11_18_19_20_0
combinacoes_12_10_11_18_19_20_1
combinacoes_12_10_11_18_19_20_10
combinacoes_12_10_11_18_19_20_11
combinacoes_12_10_11_18_19_20_12
combinacoes_12_10_11_18_19_20_13
combinacoes_12_10_11_18_19_20_14
combinacoes_12_10_11_18_19_20_15
combinacoes_12_10_11_18_19_20_2
combinacoes_12_10_11_18_19_20_3
combinacoes_12_10_11_18_19_20_4
combinacoes_12_10_11_18_19_20_5
combinacoes_12_10_11_18_19_20_6
combinacoes_12_10_11_18_19_20_7
combinacoes_12_10_11_18_19_20_8
combinacoes_12_10_11_18_19_20_9
combinacoes_12_10_11_18_19_3
combinacoes_12_10_11_18_19_4
combinacoes_12_10_11_18_19_5
combinacoes_12_10_11_18_19_6
combinacoes_12_10_11_18_19_7
combinacoes_12_10_11_18_2
combinacoes_12_10_11_18_21_0
combinacoes_12_10_11_18_21_1
combinacoes_12_10_11_18_21_2
combinacoes_12_10_11_18_21_3
combinacoes_12_10_11_18_21_4
combinacoes_12_10_11_18_21_5
combinacoes_12_10_11_18_21_6
combinacoes_12_10_11_18_21_7
combinacoes_12_10_11_18_3
combinacoes_18_19_0
combinacoes_18_19_20_0
combinacoes_18_19_20_1
combinacoes_18_21_0
combinacoes_19_18_21_0
combinacoes_19_18_21_1
combinacoes_19_20_0
combinacoes_20_19_18_21_0
combinacoes_20_19_18_21_1
combinacoes_20_19_18_21_2
combinacoes_20_19_18_21_3
combinacoes_9_10_0
combinacoes_9_10_11_0
combinacoes_9_10_11_1
combinacoes_9_10_11_18_0
combinacoes_9_10_11_18_1
combinacoes_9_10_11_18_19_0
combinacoes_9_10_11_18_19_1
combinacoes_9_10_11_18_19_2
combinacoes_9_10_11_18_19_20_0
combinacoes_9_10_11_18_19_20_1
combinacoes_9_10_11_18_19_20_10
combinacoes_9_10_11_18_19_20_11
combinacoes_9_10_11_18_19_20_12
combinacoes_9_10_11_18_19_20_13
combinacoes_9_10_11_18_19_20_14
combinacoes_9_10_11_18_19_20_15
combinacoes_9_10_11_18_19_20_2
combinacoes_9_10_11_18_19_20_3
combinacoes_9_10_11_18_19_20_4
combinacoes_9_10_11_18_19_20_5
combinacoes_9_10_11_18_19_20_6
combinacoes_9_10_11_18_19_20_7
combinacoes_9_10_11_18_19_20_8
combinacoes_9_10_11_18_19_20_9
combinacoes_9_10_11_18_19_3
combinacoes_9_10_11_18_19_4
combinacoes_9_10_11_18_19_5
combinacoes_9_10_11_18_19_6
combinacoes_9_10_11_18_19_7
combinacoes_9_10_11_18_2
combinacoes_9_10_11_18_21_0
combinacoes_9_10_11_18_21_1
combinacoes_9_10_11_18_21_2
combinacoes_9_10_11_18_21_3
combinacoes_9_10_11_18_21_4
combinacoes_9_10_11_18_21_5
combinacoes_9_10_11_18_21_6
combinacoes_9_10_11_18_21_7
combinacoes_9_10_11_18_3
combinacoes_9_10_12_0
combinacoes_9_10_12_1
End
